(declare-const A.4096 Int)
(declare-const term_to_project_onto1_integralized Int)
(declare-const i Int)
(declare-const phi_A.4096 Int)
(declare-const phi_B.4096 Int)
(declare-const havoc0 Int)
(declare-const term_to_project_onto_integralized Int)
(declare-const |A.4096'| Int)
(declare-const |i'| Int)
(declare-const |B.4096'| Int)
(declare-const term_to_project_onto0_integralized Int)
(declare-const B.4096 Int)
(declare-const havoc Int)
(assert (and (<= (- i) 0) (<= (+ i -2047) 0)
               (or (= (+ (- phi_A.4096) A.4096) 0)
                     (= (+ havoc (- phi_A.4096)) 0))
               (or (= (+ (- phi_B.4096) B.4096) 0)
                     (= (+ havoc0 (- phi_B.4096)) 0)) (= (+ |i'| (- i) -1) 0)
               (= (+ |B.4096'| (- phi_B.4096)) 0)
               (= (+ |A.4096'| (- phi_A.4096)) 0)
               (= (+ term_to_project_onto1_integralized
                       (- (+ |A.4096'| (- A.4096)))) 0)
               (= (+ term_to_project_onto0_integralized
                       (- (+ |B.4096'| (- B.4096)))) 0)
               (= (+ term_to_project_onto_integralized (- (+ |i'| (- i)))) 0)))
(check-sat)